48 48
5 9
3 1
3 9
1 9
3 5
5 10
3 3
1 10
4 10
2 10
5 7
2 2
2 1
1 7
4 3
6 10
1 5
7 4
6 7
9 7
9 5
6 10
8 2
4 2
7 10
9 4
6 7
2 3
3 3
7 2
10 9
10 9
1 3
6 2
8 4
1 5
4 8
6 2
4 9
3 9
7 2
2 7
3 3
1 7
2 2
8 7
3 5
7 4
17 20 71
13 16 64
15 17 50
10 17 71
18 15 77
11 16 61
19 13 93
11 15 91
15 10 100
17 12 64
13 16 90
11 17 85
14 10 66
15 17 76
20 15 82
11 14 55
18 14 69
18 18 96
17 10 70
15 16 75
14 18 70
13 17 79
19 10 95
17 19 59
12 11 98
11 12 97
13 13 64
14 17 93
12 19 74
13 12 71
14 12 70
15 15 79
16 10 57
17 16 57
10 17 84
12 18 71
13 16 72
19 16 50
12 17 86
15 16 53
16 19 87
13 17 86
14 20 76
17 13 68
15 19 76
10 14 94
10 12 91
20 12 67
